* SDPA sparse format data
* File name = randomUnconst(20,2,4,4,3201).dat-s
* mDim = 264, nBlock = 17
* size of bVect = 1 * 264
* size of sparseMatrix =  595 * 5
264
 17
 6  6  6  6  6  6  6  6  6 10  6 10 10 10 10 10 10 
   0.0000000000    0.0000000000    0.0000000000   -0.0011341593    0.0000000000    0.0000000000    0.0000000000    0.0000000000   -0.0010397793    0.0000959796    0.0000000000    0.0000000000   -0.0006526615    0.0009677946   -0.0007566394    0.0000735844    0.0015756656   -0.0002095555    0.0007470414    0.0010045868   -0.0007966309   -0.0009949888    0.0000000000   -0.0015836639    0.0000000000    0.0007374435   -0.0014636893    0.0000000000    0.0001407701    0.0000000000   -0.0009006089    0.0000159966    0.0000000000   -0.0000575878   -0.0008430211    0.0004703002    0.0000000000    0.0000000000    0.0000000000    0.0000000000    0.0000000000    0.0000000000    0.0000000000   -0.0006894537    0.0005294876    0.0000000000    0.0000000000    0.0000000000   -0.0001039779   -0.0024362829    0.0006990516    0.0000000000    0.0003503256    0.0014061016   -0.0000271942    0.0014492924    0.0000000000    0.0000000000    0.0000000000   -0.0005710788    0.0000000000    0.0005678795    0.0000000000    0.0014924832    0.0000000000    0.0004910958   -0.0008702153    0.0015036809    0.0000000000    0.0000000000   -0.0010445783    0.0012061440   -0.0010925681    0.0000000000    0.0014236978    0.0000000000    0.0000000000    0.0000000000    0.0007966309    0.0000000000   -0.0014748870    0.0000000000   -0.0007982306    0.0000000000   -0.0007326445    0.0000000000    0.0000000000    0.0000000000    0.0000000000    0.0000000000    0.0000000000    0.0000000000   -0.0013133213   -0.0002799406    0.0014077012    0.0000000000    0.0000000000    0.0000000000    0.0007998302    0.0000000000    0.0000463902    0.0000000000    0.0000000000    0.0000000000   -0.0011597539    0.0011245613   -0.0003647226    0.0000000000    0.0000000000    0.0013597114    0.0014828853    0.0000000000    0.0000000000   -0.0012605325   -0.0013149209   -0.0008126275    0.0000000000   -0.0002751416    0.0000000000    0.0000000000   -0.0013965036   -0.0001087769   -0.0005230890    0.0000000000    0.0009821915    0.0005710788   -0.0014892839    0.0015852635    0.0000000000    0.0000000000   -0.0008910109    0.0015724663   -0.0013549124   -0.0002447481   -0.0012957250   -0.0003311297    0.0000000000    0.0000000000   -0.0014460931    0.0015468717    0.0000000000    0.0005326869    0.0014492924   -0.0015036809   -0.0003279304    0.1095445071    0.0000000000    0.0084089450    0.0000000000    0.1068425792    0.0000000000    0.0291020599    0.0000000000    0.1733094821    0.0000000000   -0.0376418216    0.0000000000    0.1476439477    0.0000000000    0.0472677459    0.0000000000    0.1382376379    0.0000000000    0.0037889730    0.0000000000    0.1249462082    0.0000000000    0.0276837093    0.0000000000    0.1631896238    0.0000000000    0.0050505744    0.0000000000    0.1603798687    0.0000000000    0.0000000000    0.0126986260    0.0000000000    0.0240946101    0.0000000000    0.0000000000    0.0000000000    0.0000000000    0.1439896310    0.0000000000    0.0000000000   -0.0681045641    0.0000000000   -0.0142998124    0.0000000000    0.0000000000    0.0000000000    0.0000000000    0.2447377147    0.0000000000    0.0027144439    0.0000000000    0.1120678649    0.0000000000    0.0011647232    0.0000000000    0.1541429730    0.0000000000    0.0001610612    0.0000000000    0.2912169034    0.0000000000    0.0000000000   -0.0080261337    0.0000000000   -0.0160831826    0.0000000000    0.0000000000    0.0000000000    0.0000000000    0.5724779959    0.0000000000    0.0000000000   -0.0096274234    0.0000000000   -0.0337060565    0.0000000000    0.0000000000    0.0000000000    0.0000000000    0.6137751919    0.0000000000    0.0000000000    0.0223354804    0.0000000000   -0.0371983642    0.0000000000    0.0000000000    0.0000000000    0.0000000000    0.2796218815    0.0000000000    0.0000000000    0.0106465706    0.0000000000   -0.0317347501    0.0000000000    0.0000000000    0.0000000000    0.0000000000    0.2469697669    0.0000000000    0.0000000000   -0.0321328743    0.0000000000    0.0123575065    0.0000000000    0.0000000000    0.0000000000    0.0000000000    0.2580334783    0.0000000000    0.0405533612    0.0000000000    0.5710812111    0.0000000000    0.0175217456    0.0000000000    1.0000000000 
  0   1   1   1   -1.0000000000
  2   1   1   2    1.0000000000
 19   1   1   3    1.0000000000
 23   1   1   4    1.0000000000
 24   1   1   5    1.0000000000
 64   1   1   6    1.0000000000
 23   1   2   2    1.0000000000
 24   1   2   3    1.0000000000
 70   1   2   4    1.0000000000
 71   1   2   5    1.0000000000
 72   1   2   6    1.0000000000
 64   1   3   3    1.0000000000
 71   1   3   4    1.0000000000
 72   1   3   5    1.0000000000
142   1   3   6    1.0000000000
150   1   4   4    1.0000000000
151   1   4   5    1.0000000000
152   1   4   6    1.0000000000
152   1   5   5    1.0000000000
153   1   5   6    1.0000000000
260   1   6   6    1.0000000000
  0   2   1   1   -1.0000000000
  5   2   1   2    1.0000000000
 10   2   1   3    1.0000000000
 29   2   1   4    1.0000000000
 30   2   1   5    1.0000000000
 41   2   1   6    1.0000000000
 29   2   2   2    1.0000000000
 30   2   2   3    1.0000000000
 79   2   2   4    1.0000000000
 80   2   2   5    1.0000000000
 81   2   2   6    1.0000000000
 41   2   3   3    1.0000000000
 80   2   3   4    1.0000000000
 81   2   3   5    1.0000000000
100   2   3   6    1.0000000000
162   2   4   4    1.0000000000
163   2   4   5    1.0000000000
164   2   4   6    1.0000000000
164   2   5   5    1.0000000000
165   2   5   6    1.0000000000
194   2   6   6    1.0000000000
  0   3   1   1   -1.0000000000
 10   3   1   2    1.0000000000
 15   3   1   3    1.0000000000
 41   3   1   4    1.0000000000
 42   3   1   5    1.0000000000
 53   3   1   6    1.0000000000
 41   3   2   2    1.0000000000
 42   3   2   3    1.0000000000
100   3   2   4    1.0000000000
101   3   2   5    1.0000000000
102   3   2   6    1.0000000000
 53   3   3   3    1.0000000000
101   3   3   4    1.0000000000
102   3   3   5    1.0000000000
121   3   3   6    1.0000000000
194   3   4   4    1.0000000000
195   3   4   5    1.0000000000
196   3   4   6    1.0000000000
196   3   5   5    1.0000000000
197   3   5   6    1.0000000000
226   3   6   6    1.0000000000
  0   4   1   1   -1.0000000000
 11   4   1   2    1.0000000000
 15   4   1   3    1.0000000000
 43   4   1   4    1.0000000000
 44   4   1   5    1.0000000000
 53   4   1   6    1.0000000000
 43   4   2   2    1.0000000000
 44   4   2   3    1.0000000000
103   4   2   4    1.0000000000
104   4   2   5    1.0000000000
105   4   2   6    1.0000000000
 53   4   3   3    1.0000000000
104   4   3   4    1.0000000000
105   4   3   5    1.0000000000
121   4   3   6    1.0000000000
198   4   4   4    1.0000000000
199   4   4   5    1.0000000000
200   4   4   6    1.0000000000
200   4   5   5    1.0000000000
201   4   5   6    1.0000000000
226   4   6   6    1.0000000000
  0   5   1   1   -1.0000000000
  3   5   1   2    1.0000000000
 20   5   1   3    1.0000000000
 25   5   1   4    1.0000000000
 26   5   1   5    1.0000000000
 66   5   1   6    1.0000000000
 25   5   2   2    1.0000000000
 26   5   2   3    1.0000000000
 73   5   2   4    1.0000000000
 74   5   2   5    1.0000000000
 75   5   2   6    1.0000000000
 66   5   3   3    1.0000000000
 74   5   3   4    1.0000000000
 75   5   3   5    1.0000000000
145   5   3   6    1.0000000000
154   5   4   4    1.0000000000
155   5   4   5    1.0000000000
156   5   4   6    1.0000000000
156   5   5   5    1.0000000000
157   5   5   6    1.0000000000
264   5   6   6    1.0000000000
  0   6   1   1   -1.0000000000
 12   6   1   2    1.0000000000
 20   6   1   3    1.0000000000
 45   6   1   4    1.0000000000
 46   6   1   5    1.0000000000
 66   6   1   6    1.0000000000
 45   6   2   2    1.0000000000
 46   6   2   3    1.0000000000
106   6   2   4    1.0000000000
107   6   2   5    1.0000000000
108   6   2   6    1.0000000000
 66   6   3   3    1.0000000000
107   6   3   4    1.0000000000
108   6   3   5    1.0000000000
145   6   3   6    1.0000000000
202   6   4   4    1.0000000000
203   6   4   5    1.0000000000
204   6   4   6    1.0000000000
204   6   5   5    1.0000000000
205   6   5   6    1.0000000000
264   6   6   6    1.0000000000
  0   7   1   1   -1.0000000000
  4   7   1   2    1.0000000000
 14   7   1   3    1.0000000000
 27   7   1   4    1.0000000000
 28   7   1   5    1.0000000000
 50   7   1   6    1.0000000000
 27   7   2   2    1.0000000000
 28   7   2   3    1.0000000000
 76   7   2   4    1.0000000000
 77   7   2   5    1.0000000000
 78   7   2   6    1.0000000000
 50   7   3   3    1.0000000000
 77   7   3   4    1.0000000000
 78   7   3   5    1.0000000000
115   7   3   6    1.0000000000
158   7   4   4    1.0000000000
159   7   4   5    1.0000000000
160   7   4   6    1.0000000000
160   7   5   5    1.0000000000
161   7   5   6    1.0000000000
216   7   6   6    1.0000000000
  0   8   1   1   -1.0000000000
  6   8   1   2    1.0000000000
 14   8   1   3    1.0000000000
 31   8   1   4    1.0000000000
 32   8   1   5    1.0000000000
 50   8   1   6    1.0000000000
 31   8   2   2    1.0000000000
 32   8   2   3    1.0000000000
 82   8   2   4    1.0000000000
 83   8   2   5    1.0000000000
 84   8   2   6    1.0000000000
 50   8   3   3    1.0000000000
 83   8   3   4    1.0000000000
 84   8   3   5    1.0000000000
115   8   3   6    1.0000000000
166   8   4   4    1.0000000000
167   8   4   5    1.0000000000
168   8   4   6    1.0000000000
168   8   5   5    1.0000000000
169   8   5   6    1.0000000000
216   8   6   6    1.0000000000
  0   9   1   1   -1.0000000000
  7   9   1   2    1.0000000000
 14   9   1   3    1.0000000000
 33   9   1   4    1.0000000000
 34   9   1   5    1.0000000000
 50   9   1   6    1.0000000000
 33   9   2   2    1.0000000000
 34   9   2   3    1.0000000000
 85   9   2   4    1.0000000000
 86   9   2   5    1.0000000000
 87   9   2   6    1.0000000000
 50   9   3   3    1.0000000000
 86   9   3   4    1.0000000000
 87   9   3   5    1.0000000000
115   9   3   6    1.0000000000
170   9   4   4    1.0000000000
171   9   4   5    1.0000000000
172   9   4   6    1.0000000000
172   9   5   5    1.0000000000
173   9   5   6    1.0000000000
216   9   6   6    1.0000000000
  0  10   1   1   -1.0000000000
 14  10   1   2    1.0000000000
 15  10   1   3    1.0000000000
 20  10   1   4    1.0000000000
 50  10   1   5    1.0000000000
 51  10   1   6    1.0000000000
 52  10   1   7    1.0000000000
 53  10   1   8    1.0000000000
 55  10   1   9    1.0000000000
 66  10   1  10    1.0000000000
 50  10   2   2    1.0000000000
 51  10   2   3    1.0000000000
 52  10   2   4    1.0000000000
115  10   2   5    1.0000000000
116  10   2   6    1.0000000000
117  10   2   7    1.0000000000
118  10   2   8    1.0000000000
119  10   2   9    1.0000000000
120  10   2  10    1.0000000000
 53  10   3   3    1.0000000000
 55  10   3   4    1.0000000000
116  10   3   5    1.0000000000
118  10   3   6    1.0000000000
119  10   3   7    1.0000000000
121  10   3   8    1.0000000000
123  10   3   9    1.0000000000
126  10   3  10    1.0000000000
 66  10   4   4    1.0000000000
117  10   4   5    1.0000000000
119  10   4   6    1.0000000000
120  10   4   7    1.0000000000
123  10   4   8    1.0000000000
126  10   4   9    1.0000000000
145  10   4  10    1.0000000000
216  10   5   5    1.0000000000
217  10   5   6    1.0000000000
218  10   5   7    1.0000000000
219  10   5   8    1.0000000000
220  10   5   9    1.0000000000
221  10   5  10    1.0000000000
219  10   6   6    1.0000000000
220  10   6   7    1.0000000000
222  10   6   8    1.0000000000
223  10   6   9    1.0000000000
224  10   6  10    1.0000000000
221  10   7   7    1.0000000000
223  10   7   8    1.0000000000
224  10   7   9    1.0000000000
225  10   7  10    1.0000000000
226  10   8   8    1.0000000000
228  10   8   9    1.0000000000
231  10   8  10    1.0000000000
231  10   9   9    1.0000000000
235  10   9  10    1.0000000000
264  10  10  10    1.0000000000
  0  11   1   1   -1.0000000000
  1  11   1   2    1.0000000000
 16  11   1   3    1.0000000000
 21  11   1   4    1.0000000000
 22  11   1   5    1.0000000000
 56  11   1   6    1.0000000000
 21  11   2   2    1.0000000000
 22  11   2   3    1.0000000000
 67  11   2   4    1.0000000000
 68  11   2   5    1.0000000000
 69  11   2   6    1.0000000000
 56  11   3   3    1.0000000000
 68  11   3   4    1.0000000000
 69  11   3   5    1.0000000000
127  11   3   6    1.0000000000
146  11   4   4    1.0000000000
147  11   4   5    1.0000000000
148  11   4   6    1.0000000000
148  11   5   5    1.0000000000
149  11   5   6    1.0000000000
236  11   6   6    1.0000000000
  0  12   1   1   -1.0000000000
 16  12   1   2    1.0000000000
 19  12   1   3    1.0000000000
 20  12   1   4    1.0000000000
 56  12   1   5    1.0000000000
 57  12   1   6    1.0000000000
 58  12   1   7    1.0000000000
 64  12   1   8    1.0000000000
 65  12   1   9    1.0000000000
 66  12   1  10    1.0000000000
 56  12   2   2    1.0000000000
 57  12   2   3    1.0000000000
 58  12   2   4    1.0000000000
127  12   2   5    1.0000000000
128  12   2   6    1.0000000000
129  12   2   7    1.0000000000
130  12   2   8    1.0000000000
131  12   2   9    1.0000000000
132  12   2  10    1.0000000000
 64  12   3   3    1.0000000000
 65  12   3   4    1.0000000000
128  12   3   5    1.0000000000
130  12   3   6    1.0000000000
131  12   3   7    1.0000000000
142  12   3   8    1.0000000000
143  12   3   9    1.0000000000
144  12   3  10    1.0000000000
 66  12   4   4    1.0000000000
129  12   4   5    1.0000000000
131  12   4   6    1.0000000000
132  12   4   7    1.0000000000
143  12   4   8    1.0000000000
144  12   4   9    1.0000000000
145  12   4  10    1.0000000000
236  12   5   5    1.0000000000
237  12   5   6    1.0000000000
238  12   5   7    1.0000000000
239  12   5   8    1.0000000000
240  12   5   9    1.0000000000
241  12   5  10    1.0000000000
239  12   6   6    1.0000000000
240  12   6   7    1.0000000000
242  12   6   8    1.0000000000
243  12   6   9    1.0000000000
244  12   6  10    1.0000000000
241  12   7   7    1.0000000000
243  12   7   8    1.0000000000
244  12   7   9    1.0000000000
245  12   7  10    1.0000000000
260  12   8   8    1.0000000000
261  12   8   9    1.0000000000
262  12   8  10    1.0000000000
262  12   9   9    1.0000000000
263  12   9  10    1.0000000000
264  12  10  10    1.0000000000
  0  13   1   1   -1.0000000000
  8  13   1   2    1.0000000000
 13  13   1   3    1.0000000000
 20  13   1   4    1.0000000000
 35  13   1   5    1.0000000000
 36  13   1   6    1.0000000000
 37  13   1   7    1.0000000000
 47  13   1   8    1.0000000000
 49  13   1   9    1.0000000000
 66  13   1  10    1.0000000000
 35  13   2   2    1.0000000000
 36  13   2   3    1.0000000000
 37  13   2   4    1.0000000000
 88  13   2   5    1.0000000000
 89  13   2   6    1.0000000000
 90  13   2   7    1.0000000000
 91  13   2   8    1.0000000000
 92  13   2   9    1.0000000000
 93  13   2  10    1.0000000000
 47  13   3   3    1.0000000000
 49  13   3   4    1.0000000000
 89  13   3   5    1.0000000000
 91  13   3   6    1.0000000000
 92  13   3   7    1.0000000000
109  13   3   8    1.0000000000
111  13   3   9    1.0000000000
114  13   3  10    1.0000000000
 66  13   4   4    1.0000000000
 90  13   4   5    1.0000000000
 92  13   4   6    1.0000000000
 93  13   4   7    1.0000000000
111  13   4   8    1.0000000000
114  13   4   9    1.0000000000
145  13   4  10    1.0000000000
174  13   5   5    1.0000000000
175  13   5   6    1.0000000000
176  13   5   7    1.0000000000
177  13   5   8    1.0000000000
178  13   5   9    1.0000000000
179  13   5  10    1.0000000000
177  13   6   6    1.0000000000
178  13   6   7    1.0000000000
180  13   6   8    1.0000000000
181  13   6   9    1.0000000000
182  13   6  10    1.0000000000
179  13   7   7    1.0000000000
181  13   7   8    1.0000000000
182  13   7   9    1.0000000000
183  13   7  10    1.0000000000
206  13   8   8    1.0000000000
208  13   8   9    1.0000000000
211  13   8  10    1.0000000000
211  13   9   9    1.0000000000
215  13   9  10    1.0000000000
264  13  10  10    1.0000000000
  0  14   1   1   -1.0000000000
 13  14   1   2    1.0000000000
 15  14   1   3    1.0000000000
 20  14   1   4    1.0000000000
 47  14   1   5    1.0000000000
 48  14   1   6    1.0000000000
 49  14   1   7    1.0000000000
 53  14   1   8    1.0000000000
 55  14   1   9    1.0000000000
 66  14   1  10    1.0000000000
 47  14   2   2    1.0000000000
 48  14   2   3    1.0000000000
 49  14   2   4    1.0000000000
109  14   2   5    1.0000000000
110  14   2   6    1.0000000000
111  14   2   7    1.0000000000
112  14   2   8    1.0000000000
113  14   2   9    1.0000000000
114  14   2  10    1.0000000000
 53  14   3   3    1.0000000000
 55  14   3   4    1.0000000000
110  14   3   5    1.0000000000
112  14   3   6    1.0000000000
113  14   3   7    1.0000000000
121  14   3   8    1.0000000000
123  14   3   9    1.0000000000
126  14   3  10    1.0000000000
 66  14   4   4    1.0000000000
111  14   4   5    1.0000000000
113  14   4   6    1.0000000000
114  14   4   7    1.0000000000
123  14   4   8    1.0000000000
126  14   4   9    1.0000000000
145  14   4  10    1.0000000000
206  14   5   5    1.0000000000
207  14   5   6    1.0000000000
208  14   5   7    1.0000000000
209  14   5   8    1.0000000000
210  14   5   9    1.0000000000
211  14   5  10    1.0000000000
209  14   6   6    1.0000000000
210  14   6   7    1.0000000000
212  14   6   8    1.0000000000
213  14   6   9    1.0000000000
214  14   6  10    1.0000000000
211  14   7   7    1.0000000000
213  14   7   8    1.0000000000
214  14   7   9    1.0000000000
215  14   7  10    1.0000000000
226  14   8   8    1.0000000000
228  14   8   9    1.0000000000
231  14   8  10    1.0000000000
231  14   9   9    1.0000000000
235  14   9  10    1.0000000000
264  14  10  10    1.0000000000
  0  15   1   1   -1.0000000000
 15  15   1   2    1.0000000000
 19  15   1   3    1.0000000000
 20  15   1   4    1.0000000000
 53  15   1   5    1.0000000000
 54  15   1   6    1.0000000000
 55  15   1   7    1.0000000000
 64  15   1   8    1.0000000000
 65  15   1   9    1.0000000000
 66  15   1  10    1.0000000000
 53  15   2   2    1.0000000000
 54  15   2   3    1.0000000000
 55  15   2   4    1.0000000000
121  15   2   5    1.0000000000
122  15   2   6    1.0000000000
123  15   2   7    1.0000000000
124  15   2   8    1.0000000000
125  15   2   9    1.0000000000
126  15   2  10    1.0000000000
 64  15   3   3    1.0000000000
 65  15   3   4    1.0000000000
122  15   3   5    1.0000000000
124  15   3   6    1.0000000000
125  15   3   7    1.0000000000
142  15   3   8    1.0000000000
143  15   3   9    1.0000000000
144  15   3  10    1.0000000000
 66  15   4   4    1.0000000000
123  15   4   5    1.0000000000
125  15   4   6    1.0000000000
126  15   4   7    1.0000000000
143  15   4   8    1.0000000000
144  15   4   9    1.0000000000
145  15   4  10    1.0000000000
226  15   5   5    1.0000000000
227  15   5   6    1.0000000000
228  15   5   7    1.0000000000
229  15   5   8    1.0000000000
230  15   5   9    1.0000000000
231  15   5  10    1.0000000000
229  15   6   6    1.0000000000
230  15   6   7    1.0000000000
232  15   6   8    1.0000000000
233  15   6   9    1.0000000000
234  15   6  10    1.0000000000
231  15   7   7    1.0000000000
233  15   7   8    1.0000000000
234  15   7   9    1.0000000000
235  15   7  10    1.0000000000
260  15   8   8    1.0000000000
261  15   8   9    1.0000000000
262  15   8  10    1.0000000000
262  15   9   9    1.0000000000
263  15   9  10    1.0000000000
264  15  10  10    1.0000000000
  0  16   1   1   -1.0000000000
 17  16   1   2    1.0000000000
 18  16   1   3    1.0000000000
 19  16   1   4    1.0000000000
 59  16   1   5    1.0000000000
 60  16   1   6    1.0000000000
 61  16   1   7    1.0000000000
 62  16   1   8    1.0000000000
 63  16   1   9    1.0000000000
 64  16   1  10    1.0000000000
 59  16   2   2    1.0000000000
 60  16   2   3    1.0000000000
 61  16   2   4    1.0000000000
133  16   2   5    1.0000000000
134  16   2   6    1.0000000000
135  16   2   7    1.0000000000
136  16   2   8    1.0000000000
137  16   2   9    1.0000000000
138  16   2  10    1.0000000000
 62  16   3   3    1.0000000000
 63  16   3   4    1.0000000000
134  16   3   5    1.0000000000
136  16   3   6    1.0000000000
137  16   3   7    1.0000000000
139  16   3   8    1.0000000000
140  16   3   9    1.0000000000
141  16   3  10    1.0000000000
 64  16   4   4    1.0000000000
135  16   4   5    1.0000000000
137  16   4   6    1.0000000000
138  16   4   7    1.0000000000
140  16   4   8    1.0000000000
141  16   4   9    1.0000000000
142  16   4  10    1.0000000000
246  16   5   5    1.0000000000
247  16   5   6    1.0000000000
248  16   5   7    1.0000000000
249  16   5   8    1.0000000000
250  16   5   9    1.0000000000
251  16   5  10    1.0000000000
249  16   6   6    1.0000000000
250  16   6   7    1.0000000000
252  16   6   8    1.0000000000
253  16   6   9    1.0000000000
254  16   6  10    1.0000000000
251  16   7   7    1.0000000000
253  16   7   8    1.0000000000
254  16   7   9    1.0000000000
255  16   7  10    1.0000000000
256  16   8   8    1.0000000000
257  16   8   9    1.0000000000
258  16   8  10    1.0000000000
258  16   9   9    1.0000000000
259  16   9  10    1.0000000000
260  16  10  10    1.0000000000
  0  17   1   1   -1.0000000000
  9  17   1   2    1.0000000000
 17  17   1   3    1.0000000000
 18  17   1   4    1.0000000000
 38  17   1   5    1.0000000000
 39  17   1   6    1.0000000000
 40  17   1   7    1.0000000000
 59  17   1   8    1.0000000000
 60  17   1   9    1.0000000000
 62  17   1  10    1.0000000000
 38  17   2   2    1.0000000000
 39  17   2   3    1.0000000000
 40  17   2   4    1.0000000000
 94  17   2   5    1.0000000000
 95  17   2   6    1.0000000000
 96  17   2   7    1.0000000000
 97  17   2   8    1.0000000000
 98  17   2   9    1.0000000000
 99  17   2  10    1.0000000000
 59  17   3   3    1.0000000000
 60  17   3   4    1.0000000000
 95  17   3   5    1.0000000000
 97  17   3   6    1.0000000000
 98  17   3   7    1.0000000000
133  17   3   8    1.0000000000
134  17   3   9    1.0000000000
136  17   3  10    1.0000000000
 62  17   4   4    1.0000000000
 96  17   4   5    1.0000000000
 98  17   4   6    1.0000000000
 99  17   4   7    1.0000000000
134  17   4   8    1.0000000000
136  17   4   9    1.0000000000
139  17   4  10    1.0000000000
184  17   5   5    1.0000000000
185  17   5   6    1.0000000000
186  17   5   7    1.0000000000
187  17   5   8    1.0000000000
188  17   5   9    1.0000000000
189  17   5  10    1.0000000000
187  17   6   6    1.0000000000
188  17   6   7    1.0000000000
190  17   6   8    1.0000000000
191  17   6   9    1.0000000000
192  17   6  10    1.0000000000
189  17   7   7    1.0000000000
191  17   7   8    1.0000000000
192  17   7   9    1.0000000000
193  17   7  10    1.0000000000
246  17   8   8    1.0000000000
247  17   8   9    1.0000000000
249  17   8  10    1.0000000000
249  17   9   9    1.0000000000
252  17   9  10    1.0000000000
256  17  10  10    1.0000000000
